; benchmark generated from python API
(set-info :status unknown)
(declare-fun x_epoch () Int)
(declare-fun x_plus_epoch () Int)
(declare-fun x_plus_month () Int)
(declare-fun x_plus_year () Int)
(declare-fun x_plus_day () Int)
(assert
 (>= x_epoch (- 36584)))
(assert
 (<= x_epoch 36829))
(assert
 (= x_epoch 7304))
(assert
 (>= x_plus_epoch (- 36584)))
(assert
 (<= x_plus_epoch 36829))
(assert
 (let (($x751 (= x_plus_month 11)))
 (let (($x770 (= x_plus_month 9)))
 (let (($x766 (= x_plus_month 6)))
 (let (($x763 (= x_plus_month 4)))
 (let ((?x757 (ite (or $x763 $x766 $x770 $x751) 30 31)))
 (let (($x762 (= (mod x_plus_year 400) 0)))
 (let (($x759 (= (mod x_plus_year 4) 0)))
 (let (($x778 (or (and $x759 (and (distinct (mod x_plus_year 100) 0) true)) $x762)))
 (let (($x780 (= x_plus_month 2)))
 (let (($x821 (>= x_plus_day 1)))
 (let (($x773 (<= x_plus_month 12)))
 (let (($x781 (>= x_plus_month 1)))
 (let (($x779 (<= x_plus_year 2100)))
 (let (($x765 (>= x_plus_year 1900)))
 (and $x765 $x779 $x781 $x773 $x821 (<= x_plus_day (ite $x780 (ite $x778 29 28) ?x757))))))))))))))))))
(assert
 (let (($x762 (= (mod x_plus_year 400) 0)))
 (let (($x759 (= (mod x_plus_year 4) 0)))
 (let (($x778 (or (and $x759 (and (distinct (mod x_plus_year 100) 0) true)) $x762)))
 (let ((?x632 (ite (= 2 x_plus_month) (ite $x778 31 31) (ite (= 1 x_plus_month) (ite $x778 0 0) 0))))
 (let ((?x669 (ite (= 4 x_plus_month) (ite $x778 91 90) (ite (= 3 x_plus_month) (ite $x778 60 59) ?x632))))
 (let ((?x619 (ite (= 6 x_plus_month) (ite $x778 152 151) (ite (= 5 x_plus_month) (ite $x778 121 120) ?x669))))
 (let ((?x615 (ite (= 8 x_plus_month) (ite $x778 213 212) (ite (= 7 x_plus_month) (ite $x778 182 181) ?x619))))
 (let ((?x649 (ite (= 10 x_plus_month) (ite $x778 274 273) (ite (= 9 x_plus_month) (ite $x778 244 243) ?x615))))
 (let ((?x608 (ite (= 12 x_plus_month) (ite $x778 335 334) (ite (= 11 x_plus_month) (ite $x778 305 304) ?x649))))
 (let ((?x666 (+ (* 365 (- x_plus_year 1)) (div (- x_plus_year 1) 4))))
 (let ((?x641 (+ (- ?x666 (div (- x_plus_year 1) 100)) (div (- x_plus_year 1) 400))))
 (= x_plus_epoch (- (+ (+ ?x641 ?x608) (- x_plus_day 1)) 730179))))))))))))))
(assert
 (let ((?x1000 (+ x_epoch 730179)))
 (let ((?x1041 (mod ?x1000 146097)))
 (let ((?x1040 (div ?x1041 36524)))
 (let ((?x1009 (ite (<= 4 ?x1040) 3 ?x1040)))
 (let ((?x1007 (- ?x1041 (* ?x1009 36524))))
 (let ((?x950 (mod ?x1007 1461)))
 (let ((?x969 (div ?x950 365)))
 (let ((?x957 (ite (<= 4 ?x969) 3 ?x969)))
 (let ((?x884 (+ (+ (* (div ?x1000 146097) 400) (* ?x1009 100)) (* (div ?x1007 1461) 4))))
 (let ((?x900 (+ (+ ?x884 ?x957) 1)))
 (let (($x873 (or (and (= (mod ?x900 4) 0) (and (distinct (mod ?x900 100) 0) true)) (= (mod ?x900 400) 0))))
 (let ((?x958 (- ?x950 (* ?x957 365))))
 (let ((?x874 (ite $x873 31 31)))
 (let (($x982 (>= ?x958 ?x874)))
 (let ((?x971 (ite $x982 (+ (- ?x958 ?x874) 1) (+ (- ?x958 (ite $x873 0 0)) 1))))
 (let ((?x881 (ite $x873 60 59)))
 (let (($x1008 (>= ?x958 ?x881)))
 (let ((?x935 (ite $x873 91 90)))
 (let (($x1013 (>= ?x958 ?x935)))
 (let ((?x1038 (ite $x1013 (+ (- ?x958 ?x935) 1) (ite $x1008 (+ (- ?x958 ?x881) 1) ?x971))))
 (let ((?x865 (ite $x873 121 120)))
 (let (($x995 (>= ?x958 ?x865)))
 (let ((?x930 (ite $x873 152 151)))
 (let (($x999 (>= ?x958 ?x930)))
 (let ((?x978 (ite $x999 (+ (- ?x958 ?x930) 1) (ite $x995 (+ (- ?x958 ?x865) 1) ?x1038))))
 (let ((?x927 (ite $x873 182 181)))
 (let (($x984 (>= ?x958 ?x927)))
 (let ((?x946 (ite $x873 213 212)))
 (let (($x938 (>= ?x958 ?x946)))
 (let ((?x996 (ite $x938 (+ (- ?x958 ?x946) 1) (ite $x984 (+ (- ?x958 ?x927) 1) ?x978))))
 (let ((?x861 (ite $x873 244 243)))
 (let (($x940 (>= ?x958 ?x861)))
 (let ((?x883 (ite $x873 274 273)))
 (let (($x942 (>= ?x958 ?x883)))
 (let ((?x923 (ite $x942 (+ (- ?x958 ?x883) 1) (ite $x940 (+ (- ?x958 ?x861) 1) ?x996))))
 (let ((?x866 (ite $x873 305 304)))
 (let (($x962 (>= ?x958 ?x866)))
 (let ((?x965 (ite $x873 335 334)))
 (let (($x967 (>= ?x958 ?x965)))
 (let ((?x853 (ite $x967 (+ (- ?x958 ?x965) 1) (ite $x962 (+ (- ?x958 ?x866) 1) ?x923))))
 (let ((?x852 (+ (* 1 12) 0)))
 (let ((?x997 (ite $x995 5 (ite $x1013 4 (ite $x1008 3 (ite $x982 2 1))))))
 (let ((?x941 (ite $x940 9 (ite $x938 8 (ite $x984 7 (ite $x999 6 ?x997))))))
 (let ((?x960 (ite $x967 12 (ite $x962 11 (ite $x942 10 ?x941)))))
 (let ((?x832 (+ ?x960 ?x852)))
 (let ((?x851 (- ?x832 1)))
 (let ((?x908 (+ (mod ?x851 12) 1)))
 (let ((?x828 (ite (or (= ?x908 4) (= ?x908 6) (= ?x908 9) (= ?x908 11)) 30 31)))
 (let (($x846 (and (= (mod (+ ?x900 (+ 0 (div ?x851 12))) 4) 0) (and (distinct (mod (+ ?x900 (+ 0 (div ?x851 12))) 100) 0) true))))
 (let (($x925 (or $x846 (= (mod (+ ?x900 (+ 0 (div ?x851 12))) 400) 0))))
 (let ((?x839 (ite (= ?x908 2) (ite $x925 29 28) ?x828)))
 (let ((?x845 (ite (> 1 ?x853) 1 (ite (> ?x853 ?x839) ?x839 ?x853))))
 (let ((?x1031 (ite (> 1 ?x845) 1 (ite (> ?x845 ?x839) ?x839 ?x845))))
 (let ((?x837 (ite (= 2 ?x908) (ite $x925 31 31) (ite (= 1 ?x908) (ite $x925 0 0) 0))))
 (let ((?x736 (ite (= 4 ?x908) (ite $x925 91 90) (ite (= 3 ?x908) (ite $x925 60 59) ?x837))))
 (let ((?x847 (ite (= 6 ?x908) (ite $x925 152 151) (ite (= 5 ?x908) (ite $x925 121 120) ?x736))))
 (let ((?x807 (ite (= 8 ?x908) (ite $x925 213 212) (ite (= 7 ?x908) (ite $x925 182 181) ?x847))))
 (let ((?x814 (ite (= 10 ?x908) (ite $x925 274 273) (ite (= 9 ?x908) (ite $x925 244 243) ?x807))))
 (let ((?x1016 (ite (= 12 ?x908) (ite $x925 335 334) (ite (= 11 ?x908) (ite $x925 305 304) ?x814))))
 (let ((?x804 (+ (* 365 (- (+ ?x900 (+ 0 (div ?x851 12))) 1)) (div (- (+ ?x900 (+ 0 (div ?x851 12))) 1) 4))))
 (let ((?x788 (+ (- ?x804 (div (- (+ ?x900 (+ 0 (div ?x851 12))) 1) 100)) (div (- (+ ?x900 (+ 0 (div ?x851 12))) 1) 400))))
 (let ((?x1051 (+ (+ (- (+ (+ ?x788 ?x1016) (- ?x1031 1)) 730179) 0) 730179)))
 (let ((?x1054 (mod ?x1051 146097)))
 (let ((?x1056 (div ?x1054 36524)))
 (let ((?x1044 (ite (<= 4 ?x1056) 3 ?x1056)))
 (let ((?x1005 (- ?x1054 (* ?x1044 36524))))
 (let ((?x1065 (mod ?x1005 1461)))
 (let ((?x1064 (div ?x1065 365)))
 (let ((?x545 (ite (<= 4 ?x1064) 3 ?x1064)))
 (let ((?x796 (+ (+ (* (div ?x1051 146097) 400) (* ?x1044 100)) (* (div ?x1005 1461) 4))))
 (let ((?x744 (+ (+ ?x796 ?x545) 1)))
 (let ((?x842 (+ 0 (div ?x851 12))))
 (let ((?x830 (+ ?x900 ?x842)))
 (let (($x797 (= 0 0)))
 (let ((?x755 (ite $x797 ?x830 ?x744)))
 (= x_plus_year ?x755)))))))))))))))))))))))))))))))))))))))))))))))))))))))))))))))))))))))))))))
(assert
 (let ((?x1000 (+ x_epoch 730179)))
 (let ((?x1041 (mod ?x1000 146097)))
 (let ((?x1040 (div ?x1041 36524)))
 (let ((?x1009 (ite (<= 4 ?x1040) 3 ?x1040)))
 (let ((?x1007 (- ?x1041 (* ?x1009 36524))))
 (let ((?x950 (mod ?x1007 1461)))
 (let ((?x969 (div ?x950 365)))
 (let ((?x957 (ite (<= 4 ?x969) 3 ?x969)))
 (let ((?x884 (+ (+ (* (div ?x1000 146097) 400) (* ?x1009 100)) (* (div ?x1007 1461) 4))))
 (let ((?x900 (+ (+ ?x884 ?x957) 1)))
 (let (($x873 (or (and (= (mod ?x900 4) 0) (and (distinct (mod ?x900 100) 0) true)) (= (mod ?x900 400) 0))))
 (let ((?x958 (- ?x950 (* ?x957 365))))
 (let ((?x874 (ite $x873 31 31)))
 (let (($x982 (>= ?x958 ?x874)))
 (let ((?x971 (ite $x982 (+ (- ?x958 ?x874) 1) (+ (- ?x958 (ite $x873 0 0)) 1))))
 (let ((?x881 (ite $x873 60 59)))
 (let (($x1008 (>= ?x958 ?x881)))
 (let ((?x935 (ite $x873 91 90)))
 (let (($x1013 (>= ?x958 ?x935)))
 (let ((?x1038 (ite $x1013 (+ (- ?x958 ?x935) 1) (ite $x1008 (+ (- ?x958 ?x881) 1) ?x971))))
 (let ((?x865 (ite $x873 121 120)))
 (let (($x995 (>= ?x958 ?x865)))
 (let ((?x930 (ite $x873 152 151)))
 (let (($x999 (>= ?x958 ?x930)))
 (let ((?x978 (ite $x999 (+ (- ?x958 ?x930) 1) (ite $x995 (+ (- ?x958 ?x865) 1) ?x1038))))
 (let ((?x927 (ite $x873 182 181)))
 (let (($x984 (>= ?x958 ?x927)))
 (let ((?x946 (ite $x873 213 212)))
 (let (($x938 (>= ?x958 ?x946)))
 (let ((?x996 (ite $x938 (+ (- ?x958 ?x946) 1) (ite $x984 (+ (- ?x958 ?x927) 1) ?x978))))
 (let ((?x861 (ite $x873 244 243)))
 (let (($x940 (>= ?x958 ?x861)))
 (let ((?x883 (ite $x873 274 273)))
 (let (($x942 (>= ?x958 ?x883)))
 (let ((?x923 (ite $x942 (+ (- ?x958 ?x883) 1) (ite $x940 (+ (- ?x958 ?x861) 1) ?x996))))
 (let ((?x866 (ite $x873 305 304)))
 (let (($x962 (>= ?x958 ?x866)))
 (let ((?x965 (ite $x873 335 334)))
 (let (($x967 (>= ?x958 ?x965)))
 (let ((?x853 (ite $x967 (+ (- ?x958 ?x965) 1) (ite $x962 (+ (- ?x958 ?x866) 1) ?x923))))
 (let ((?x852 (+ (* 1 12) 0)))
 (let ((?x997 (ite $x995 5 (ite $x1013 4 (ite $x1008 3 (ite $x982 2 1))))))
 (let ((?x941 (ite $x940 9 (ite $x938 8 (ite $x984 7 (ite $x999 6 ?x997))))))
 (let ((?x960 (ite $x967 12 (ite $x962 11 (ite $x942 10 ?x941)))))
 (let ((?x832 (+ ?x960 ?x852)))
 (let ((?x851 (- ?x832 1)))
 (let ((?x908 (+ (mod ?x851 12) 1)))
 (let ((?x828 (ite (or (= ?x908 4) (= ?x908 6) (= ?x908 9) (= ?x908 11)) 30 31)))
 (let (($x846 (and (= (mod (+ ?x900 (+ 0 (div ?x851 12))) 4) 0) (and (distinct (mod (+ ?x900 (+ 0 (div ?x851 12))) 100) 0) true))))
 (let (($x925 (or $x846 (= (mod (+ ?x900 (+ 0 (div ?x851 12))) 400) 0))))
 (let ((?x839 (ite (= ?x908 2) (ite $x925 29 28) ?x828)))
 (let ((?x845 (ite (> 1 ?x853) 1 (ite (> ?x853 ?x839) ?x839 ?x853))))
 (let ((?x1031 (ite (> 1 ?x845) 1 (ite (> ?x845 ?x839) ?x839 ?x845))))
 (let ((?x837 (ite (= 2 ?x908) (ite $x925 31 31) (ite (= 1 ?x908) (ite $x925 0 0) 0))))
 (let ((?x736 (ite (= 4 ?x908) (ite $x925 91 90) (ite (= 3 ?x908) (ite $x925 60 59) ?x837))))
 (let ((?x847 (ite (= 6 ?x908) (ite $x925 152 151) (ite (= 5 ?x908) (ite $x925 121 120) ?x736))))
 (let ((?x807 (ite (= 8 ?x908) (ite $x925 213 212) (ite (= 7 ?x908) (ite $x925 182 181) ?x847))))
 (let ((?x814 (ite (= 10 ?x908) (ite $x925 274 273) (ite (= 9 ?x908) (ite $x925 244 243) ?x807))))
 (let ((?x1016 (ite (= 12 ?x908) (ite $x925 335 334) (ite (= 11 ?x908) (ite $x925 305 304) ?x814))))
 (let ((?x804 (+ (* 365 (- (+ ?x900 (+ 0 (div ?x851 12))) 1)) (div (- (+ ?x900 (+ 0 (div ?x851 12))) 1) 4))))
 (let ((?x788 (+ (- ?x804 (div (- (+ ?x900 (+ 0 (div ?x851 12))) 1) 100)) (div (- (+ ?x900 (+ 0 (div ?x851 12))) 1) 400))))
 (let ((?x1051 (+ (+ (- (+ (+ ?x788 ?x1016) (- ?x1031 1)) 730179) 0) 730179)))
 (let ((?x1054 (mod ?x1051 146097)))
 (let ((?x1056 (div ?x1054 36524)))
 (let ((?x1044 (ite (<= 4 ?x1056) 3 ?x1056)))
 (let ((?x1005 (- ?x1054 (* ?x1044 36524))))
 (let ((?x1065 (mod ?x1005 1461)))
 (let ((?x1064 (div ?x1065 365)))
 (let ((?x545 (ite (<= 4 ?x1064) 3 ?x1064)))
 (let ((?x796 (+ (+ (* (div ?x1051 146097) 400) (* ?x1044 100)) (* (div ?x1005 1461) 4))))
 (let ((?x744 (+ (+ ?x796 ?x545) 1)))
 (let (($x685 (or (and (= (mod ?x744 4) 0) (and (distinct (mod ?x744 100) 0) true)) (= (mod ?x744 400) 0))))
 (let ((?x704 (ite $x685 31 31)))
 (let ((?x791 (- ?x1065 (* ?x545 365))))
 (let (($x710 (>= ?x791 ?x704)))
 (let ((?x699 (ite $x685 60 59)))
 (let (($x707 (>= ?x791 ?x699)))
 (let ((?x700 (ite $x685 91 90)))
 (let (($x701 (>= ?x791 ?x700)))
 (let ((?x696 (ite $x685 121 120)))
 (let (($x689 (>= ?x791 ?x696)))
 (let ((?x693 (ite $x689 5 (ite $x701 4 (ite $x707 3 (ite $x710 2 1))))))
 (let ((?x697 (ite $x685 152 151)))
 (let (($x733 (>= ?x791 ?x697)))
 (let ((?x711 (ite $x685 182 181)))
 (let (($x724 (>= ?x791 ?x711)))
 (let ((?x712 (ite $x685 213 212)))
 (let (($x798 (>= ?x791 ?x712)))
 (let ((?x708 (ite $x685 244 243)))
 (let (($x792 (>= ?x791 ?x708)))
 (let ((?x787 (ite $x792 9 (ite $x798 8 (ite $x724 7 (ite $x733 6 ?x693))))))
 (let ((?x727 (ite $x685 274 273)))
 (let (($x705 (>= ?x791 ?x727)))
 (let ((?x714 (ite $x685 305 304)))
 (let (($x703 (>= ?x791 ?x714)))
 (let ((?x721 (ite $x685 335 334)))
 (let (($x726 (>= ?x791 ?x721)))
 (let (($x797 (= 0 0)))
 (let ((?x756 (ite $x797 ?x908 (ite $x726 12 (ite $x703 11 (ite $x705 10 ?x787))))))
 (= x_plus_month ?x756)))))))))))))))))))))))))))))))))))))))))))))))))))))))))))))))))))))))))))))))))))))))))))))))))))))
(assert
 (let ((?x1000 (+ x_epoch 730179)))
 (let ((?x1041 (mod ?x1000 146097)))
 (let ((?x1040 (div ?x1041 36524)))
 (let ((?x1009 (ite (<= 4 ?x1040) 3 ?x1040)))
 (let ((?x1007 (- ?x1041 (* ?x1009 36524))))
 (let ((?x950 (mod ?x1007 1461)))
 (let ((?x969 (div ?x950 365)))
 (let ((?x957 (ite (<= 4 ?x969) 3 ?x969)))
 (let ((?x884 (+ (+ (* (div ?x1000 146097) 400) (* ?x1009 100)) (* (div ?x1007 1461) 4))))
 (let ((?x900 (+ (+ ?x884 ?x957) 1)))
 (let (($x873 (or (and (= (mod ?x900 4) 0) (and (distinct (mod ?x900 100) 0) true)) (= (mod ?x900 400) 0))))
 (let ((?x958 (- ?x950 (* ?x957 365))))
 (let ((?x874 (ite $x873 31 31)))
 (let (($x982 (>= ?x958 ?x874)))
 (let ((?x971 (ite $x982 (+ (- ?x958 ?x874) 1) (+ (- ?x958 (ite $x873 0 0)) 1))))
 (let ((?x881 (ite $x873 60 59)))
 (let (($x1008 (>= ?x958 ?x881)))
 (let ((?x935 (ite $x873 91 90)))
 (let (($x1013 (>= ?x958 ?x935)))
 (let ((?x1038 (ite $x1013 (+ (- ?x958 ?x935) 1) (ite $x1008 (+ (- ?x958 ?x881) 1) ?x971))))
 (let ((?x865 (ite $x873 121 120)))
 (let (($x995 (>= ?x958 ?x865)))
 (let ((?x930 (ite $x873 152 151)))
 (let (($x999 (>= ?x958 ?x930)))
 (let ((?x978 (ite $x999 (+ (- ?x958 ?x930) 1) (ite $x995 (+ (- ?x958 ?x865) 1) ?x1038))))
 (let ((?x927 (ite $x873 182 181)))
 (let (($x984 (>= ?x958 ?x927)))
 (let ((?x946 (ite $x873 213 212)))
 (let (($x938 (>= ?x958 ?x946)))
 (let ((?x996 (ite $x938 (+ (- ?x958 ?x946) 1) (ite $x984 (+ (- ?x958 ?x927) 1) ?x978))))
 (let ((?x861 (ite $x873 244 243)))
 (let (($x940 (>= ?x958 ?x861)))
 (let ((?x883 (ite $x873 274 273)))
 (let (($x942 (>= ?x958 ?x883)))
 (let ((?x923 (ite $x942 (+ (- ?x958 ?x883) 1) (ite $x940 (+ (- ?x958 ?x861) 1) ?x996))))
 (let ((?x866 (ite $x873 305 304)))
 (let (($x962 (>= ?x958 ?x866)))
 (let ((?x965 (ite $x873 335 334)))
 (let (($x967 (>= ?x958 ?x965)))
 (let ((?x853 (ite $x967 (+ (- ?x958 ?x965) 1) (ite $x962 (+ (- ?x958 ?x866) 1) ?x923))))
 (let ((?x852 (+ (* 1 12) 0)))
 (let ((?x997 (ite $x995 5 (ite $x1013 4 (ite $x1008 3 (ite $x982 2 1))))))
 (let ((?x941 (ite $x940 9 (ite $x938 8 (ite $x984 7 (ite $x999 6 ?x997))))))
 (let ((?x960 (ite $x967 12 (ite $x962 11 (ite $x942 10 ?x941)))))
 (let ((?x832 (+ ?x960 ?x852)))
 (let ((?x851 (- ?x832 1)))
 (let ((?x908 (+ (mod ?x851 12) 1)))
 (let ((?x828 (ite (or (= ?x908 4) (= ?x908 6) (= ?x908 9) (= ?x908 11)) 30 31)))
 (let (($x846 (and (= (mod (+ ?x900 (+ 0 (div ?x851 12))) 4) 0) (and (distinct (mod (+ ?x900 (+ 0 (div ?x851 12))) 100) 0) true))))
 (let (($x925 (or $x846 (= (mod (+ ?x900 (+ 0 (div ?x851 12))) 400) 0))))
 (let ((?x839 (ite (= ?x908 2) (ite $x925 29 28) ?x828)))
 (let ((?x845 (ite (> 1 ?x853) 1 (ite (> ?x853 ?x839) ?x839 ?x853))))
 (let ((?x1031 (ite (> 1 ?x845) 1 (ite (> ?x845 ?x839) ?x839 ?x845))))
 (let ((?x837 (ite (= 2 ?x908) (ite $x925 31 31) (ite (= 1 ?x908) (ite $x925 0 0) 0))))
 (let ((?x736 (ite (= 4 ?x908) (ite $x925 91 90) (ite (= 3 ?x908) (ite $x925 60 59) ?x837))))
 (let ((?x847 (ite (= 6 ?x908) (ite $x925 152 151) (ite (= 5 ?x908) (ite $x925 121 120) ?x736))))
 (let ((?x807 (ite (= 8 ?x908) (ite $x925 213 212) (ite (= 7 ?x908) (ite $x925 182 181) ?x847))))
 (let ((?x814 (ite (= 10 ?x908) (ite $x925 274 273) (ite (= 9 ?x908) (ite $x925 244 243) ?x807))))
 (let ((?x1016 (ite (= 12 ?x908) (ite $x925 335 334) (ite (= 11 ?x908) (ite $x925 305 304) ?x814))))
 (let ((?x804 (+ (* 365 (- (+ ?x900 (+ 0 (div ?x851 12))) 1)) (div (- (+ ?x900 (+ 0 (div ?x851 12))) 1) 4))))
 (let ((?x788 (+ (- ?x804 (div (- (+ ?x900 (+ 0 (div ?x851 12))) 1) 100)) (div (- (+ ?x900 (+ 0 (div ?x851 12))) 1) 400))))
 (let ((?x1051 (+ (+ (- (+ (+ ?x788 ?x1016) (- ?x1031 1)) 730179) 0) 730179)))
 (let ((?x1054 (mod ?x1051 146097)))
 (let ((?x1056 (div ?x1054 36524)))
 (let ((?x1044 (ite (<= 4 ?x1056) 3 ?x1056)))
 (let ((?x1005 (- ?x1054 (* ?x1044 36524))))
 (let ((?x1065 (mod ?x1005 1461)))
 (let ((?x1064 (div ?x1065 365)))
 (let ((?x545 (ite (<= 4 ?x1064) 3 ?x1064)))
 (let ((?x796 (+ (+ (* (div ?x1051 146097) 400) (* ?x1044 100)) (* (div ?x1005 1461) 4))))
 (let ((?x744 (+ (+ ?x796 ?x545) 1)))
 (let (($x685 (or (and (= (mod ?x744 4) 0) (and (distinct (mod ?x744 100) 0) true)) (= (mod ?x744 400) 0))))
 (let ((?x791 (- ?x1065 (* ?x545 365))))
 (let ((?x704 (ite $x685 31 31)))
 (let (($x710 (>= ?x791 ?x704)))
 (let ((?x1004 (ite $x710 (+ (- ?x791 ?x704) 1) (+ (- ?x791 (ite $x685 0 0)) 1))))
 (let ((?x699 (ite $x685 60 59)))
 (let (($x707 (>= ?x791 ?x699)))
 (let ((?x700 (ite $x685 91 90)))
 (let (($x701 (>= ?x791 ?x700)))
 (let ((?x1011 (ite $x701 (+ (- ?x791 ?x700) 1) (ite $x707 (+ (- ?x791 ?x699) 1) ?x1004))))
 (let ((?x696 (ite $x685 121 120)))
 (let (($x689 (>= ?x791 ?x696)))
 (let ((?x697 (ite $x685 152 151)))
 (let (($x733 (>= ?x791 ?x697)))
 (let ((?x1066 (ite $x733 (+ (- ?x791 ?x697) 1) (ite $x689 (+ (- ?x791 ?x696) 1) ?x1011))))
 (let ((?x711 (ite $x685 182 181)))
 (let (($x724 (>= ?x791 ?x711)))
 (let ((?x712 (ite $x685 213 212)))
 (let (($x798 (>= ?x791 ?x712)))
 (let ((?x1060 (ite $x798 (+ (- ?x791 ?x712) 1) (ite $x724 (+ (- ?x791 ?x711) 1) ?x1066))))
 (let ((?x708 (ite $x685 244 243)))
 (let (($x792 (>= ?x791 ?x708)))
 (let ((?x727 (ite $x685 274 273)))
 (let (($x705 (>= ?x791 ?x727)))
 (let ((?x291 (ite $x705 (+ (- ?x791 ?x727) 1) (ite $x792 (+ (- ?x791 ?x708) 1) ?x1060))))
 (let ((?x714 (ite $x685 305 304)))
 (let (($x703 (>= ?x791 ?x714)))
 (let ((?x721 (ite $x685 335 334)))
 (let (($x726 (>= ?x791 ?x721)))
 (let ((?x760 (ite $x726 (+ (- ?x791 ?x721) 1) (ite $x703 (+ (- ?x791 ?x714) 1) ?x291))))
 (let (($x797 (= 0 0)))
 (let ((?x752 (ite $x797 ?x1031 ?x760)))
 (= x_plus_day ?x752)))))))))))))))))))))))))))))))))))))))))))))))))))))))))))))))))))))))))))))))))))))))))))))))))))))))))
(assert
 (= x_plus_epoch 7669))
(assert
 (= x_epoch 7304))
(assert
 (= x_plus_epoch 7669))
(check-sat)
